#######################



#######################
Set parameter TimeLimit to value 300
Set parameter SoftMemLimit to value 125
Set parameter LogFile to value 1202-TimeLimit300-k16x240-0.log
Using license file /opt/gurobi/gurobi.lic

Gurobi Optimizer version 12.0.2 build v12.0.2rc0 (linux64 - "Ubuntu 22.04.4 LTS")
Copyright (c) 2025, Gurobi Optimization, LLC

Read MPS format model from file /miplib2010/k16x240.mps.bz2
Reading time = 0.00 seconds
k16x240: 256 rows, 480 columns, 960 nonzeros

Using Gurobi shared library /nfs/shared/static-builds/gurobi1202

CPU model: Intel(R) Xeon(R) E-2388G CPU @ 3.20GHz, instruction set [SSE2|AVX|AVX2|AVX512]
Thread count: 8 physical cores, 16 logical processors, using up to 16 threads

Non-default parameters:
TimeLimit  300
SoftMemLimit  125

Optimize a model with 256 rows, 480 columns and 960 nonzeros
Model fingerprint: 0x4e80885f
Variable types: 240 continuous, 240 integer (240 binary)
Coefficient statistics:
  Matrix range     [1e+00, 1e+03]
  Objective range  [1e+00, 1e+03]
  Bounds range     [1e+00, 1e+03]
  RHS range        [4e+00, 4e+02]
Found heuristic solution: objective 23615.000000
Presolve time: 0.00s
Presolved: 256 rows, 480 columns, 960 nonzeros
Variable types: 240 continuous, 240 integer (240 binary)

Root relaxation: objective 2.769838e+03, 51 iterations, 0.00 seconds (0.00 work units)

    Nodes    |    Current Node    |     Objective Bounds      |     Work
 Expl Unexpl |  Obj  Depth IntInf | Incumbent    BestBd   Gap | It/Node Time

     0     0 2769.83800    0   14 23615.0000 2769.83800  88.3%     -    0s
H    0     0                    11359.000000 2769.83800  75.6%     -    0s
H    0     0                    11195.000000 2769.83800  75.3%     -    0s
H    0     0                    11088.000000 2769.83800  75.0%     -    0s
H    0     0                    11074.000000 8084.69631  27.0%     -    0s
     0     0 8084.69631    0   26 11074.0000 8084.69631  27.0%     -    0s
H    0     0                    10916.000000 8126.71248  25.6%     -    0s
     0     0 8528.16906    0   24 10916.0000 8528.16906  21.9%     -    0s
     0     0 8539.49533    0   34 10916.0000 8539.49533  21.8%     -    0s
H    0     0                    10896.000000 8548.03675  21.5%     -    0s
H    0     0                    10806.000000 8548.03675  20.9%     -    0s
     0     0 8548.03675    0   29 10806.0000 8548.03675  20.9%     -    0s
     0     0 8739.20556    0   38 10806.0000 8739.20556  19.1%     -    0s
H    0     0                    10739.000000 8745.55182  18.6%     -    0s
H    0     0                    10717.000000 8745.55182  18.4%     -    0s
     0     0 8805.66840    0   29 10717.0000 8805.66840  17.8%     -    0s
     0     0 8815.00598    0   31 10717.0000 8815.00598  17.7%     -    0s
     0     0 8817.96662    0   29 10717.0000 8817.96662  17.7%     -    0s
     0     0 9010.31403    0   35 10717.0000 9010.31403  15.9%     -    0s
     0     0 9019.58503    0   36 10717.0000 9019.58503  15.8%     -    0s
     0     0 9031.87673    0   37 10717.0000 9031.87673  15.7%     -    0s
     0     0 9033.40807    0   40 10717.0000 9033.40807  15.7%     -    0s
     0     0 9056.94733    0   28 10717.0000 9056.94733  15.5%     -    0s
     0     0 9069.21805    0   30 10717.0000 9069.21805  15.4%     -    0s
     0     0 9076.75413    0   27 10717.0000 9076.75413  15.3%     -    0s
     0     0 9108.92666    0   26 10717.0000 9108.92666  15.0%     -    0s
     0     0 9110.55388    0   26 10717.0000 9110.55388  15.0%     -    0s
     0     2 9113.83782    0   26 10717.0000 9113.83782  15.0%     -    0s
H   36    64                    10683.000000 9223.92488  13.7%  30.6    0s
H  383   355                    10674.000000 9259.38322  13.3%  17.6    0s
 35970 13146     cutoff   31      10674.0000 10059.0050  5.76%  27.9    5s
 75122 17176 10486.5314   28   11 10674.0000 10246.5939  4.00%  29.4   10s
 122661  4287     cutoff   36      10674.0000 10498.6669  1.64%  28.6   15s

Cutting planes:
  Lift-and-project: 17
  Cover: 79
  Implied bound: 29
  Dual implied bound: 37
  MIR: 172
  Flow cover: 294
  Flow path: 58
  Inf proof: 1
  Zero half: 3
  Network: 61
  Relax-and-lift: 2

Explored 130066 nodes (3606358 simplex iterations) in 15.41 seconds (20.07 work units)
Thread count was 16 (of 16 available processors)

Solution count 10: 10674 10683 10717 ... 11195

Optimal solution found (tolerance 1.00e-04)
Best objective 1.067400000000e+04, best bound 1.067400000000e+04, gap 0.0000%
